c File: flat75_3_0.col
c
c SOURCE: Joseph Culberson (joe@cs.ualberta.ca)
c DESCRIPTION: Quasi-random coloring problem
c              generated with flatness = 0
c                             probability = 0.096
c                             known coloring = 3
c                             random seed = 1093
c              Creation Date:  Wed Feb 24 10:42:15 1999
c Maximum degree = 8 Minimum degree = 1
c COLOR VERIFICATION: Using the permuted order
c under simple greedy yields the specified
c coloring number
c Color = 3 specified partitions = 3
c p edge 75 180
c cnf created by edge2cnf
p cnf 225 840
-1 -2 0
-1 -3 0
-2 -3 0
1 2 3 0
-4 -5 0
-4 -6 0
-5 -6 0
4 5 6 0
-7 -8 0
-7 -9 0
-8 -9 0
7 8 9 0
-10 -11 0
-10 -12 0
-11 -12 0
10 11 12 0
-13 -14 0
-13 -15 0
-14 -15 0
13 14 15 0
-16 -17 0
-16 -18 0
-17 -18 0
16 17 18 0
-19 -20 0
-19 -21 0
-20 -21 0
19 20 21 0
-22 -23 0
-22 -24 0
-23 -24 0
22 23 24 0
-25 -26 0
-25 -27 0
-26 -27 0
25 26 27 0
-28 -29 0
-28 -30 0
-29 -30 0
28 29 30 0
-31 -32 0
-31 -33 0
-32 -33 0
31 32 33 0
-34 -35 0
-34 -36 0
-35 -36 0
34 35 36 0
-37 -38 0
-37 -39 0
-38 -39 0
37 38 39 0
-40 -41 0
-40 -42 0
-41 -42 0
40 41 42 0
-43 -44 0
-43 -45 0
-44 -45 0
43 44 45 0
-46 -47 0
-46 -48 0
-47 -48 0
46 47 48 0
-49 -50 0
-49 -51 0
-50 -51 0
49 50 51 0
-52 -53 0
-52 -54 0
-53 -54 0
52 53 54 0
-55 -56 0
-55 -57 0
-56 -57 0
55 56 57 0
-58 -59 0
-58 -60 0
-59 -60 0
58 59 60 0
-61 -62 0
-61 -63 0
-62 -63 0
61 62 63 0
-64 -65 0
-64 -66 0
-65 -66 0
64 65 66 0
-67 -68 0
-67 -69 0
-68 -69 0
67 68 69 0
-70 -71 0
-70 -72 0
-71 -72 0
70 71 72 0
-73 -74 0
-73 -75 0
-74 -75 0
73 74 75 0
-76 -77 0
-76 -78 0
-77 -78 0
76 77 78 0
-79 -80 0
-79 -81 0
-80 -81 0
79 80 81 0
-82 -83 0
-82 -84 0
-83 -84 0
82 83 84 0
-85 -86 0
-85 -87 0
-86 -87 0
85 86 87 0
-88 -89 0
-88 -90 0
-89 -90 0
88 89 90 0
-91 -92 0
-91 -93 0
-92 -93 0
91 92 93 0
-94 -95 0
-94 -96 0
-95 -96 0
94 95 96 0
-97 -98 0
-97 -99 0
-98 -99 0
97 98 99 0
-100 -101 0
-100 -102 0
-101 -102 0
100 101 102 0
-103 -104 0
-103 -105 0
-104 -105 0
103 104 105 0
-106 -107 0
-106 -108 0
-107 -108 0
106 107 108 0
-109 -110 0
-109 -111 0
-110 -111 0
109 110 111 0
-112 -113 0
-112 -114 0
-113 -114 0
112 113 114 0
-115 -116 0
-115 -117 0
-116 -117 0
115 116 117 0
-118 -119 0
-118 -120 0
-119 -120 0
118 119 120 0
-121 -122 0
-121 -123 0
-122 -123 0
121 122 123 0
-124 -125 0
-124 -126 0
-125 -126 0
124 125 126 0
-127 -128 0
-127 -129 0
-128 -129 0
127 128 129 0
-130 -131 0
-130 -132 0
-131 -132 0
130 131 132 0
-133 -134 0
-133 -135 0
-134 -135 0
133 134 135 0
-136 -137 0
-136 -138 0
-137 -138 0
136 137 138 0
-139 -140 0
-139 -141 0
-140 -141 0
139 140 141 0
-142 -143 0
-142 -144 0
-143 -144 0
142 143 144 0
-145 -146 0
-145 -147 0
-146 -147 0
145 146 147 0
-148 -149 0
-148 -150 0
-149 -150 0
148 149 150 0
-151 -152 0
-151 -153 0
-152 -153 0
151 152 153 0
-154 -155 0
-154 -156 0
-155 -156 0
154 155 156 0
-157 -158 0
-157 -159 0
-158 -159 0
157 158 159 0
-160 -161 0
-160 -162 0
-161 -162 0
160 161 162 0
-163 -164 0
-163 -165 0
-164 -165 0
163 164 165 0
-166 -167 0
-166 -168 0
-167 -168 0
166 167 168 0
-169 -170 0
-169 -171 0
-170 -171 0
169 170 171 0
-172 -173 0
-172 -174 0
-173 -174 0
172 173 174 0
-175 -176 0
-175 -177 0
-176 -177 0
175 176 177 0
-178 -179 0
-178 -180 0
-179 -180 0
178 179 180 0
-181 -182 0
-181 -183 0
-182 -183 0
181 182 183 0
-184 -185 0
-184 -186 0
-185 -186 0
184 185 186 0
-187 -188 0
-187 -189 0
-188 -189 0
187 188 189 0
-190 -191 0
-190 -192 0
-191 -192 0
190 191 192 0
-193 -194 0
-193 -195 0
-194 -195 0
193 194 195 0
-196 -197 0
-196 -198 0
-197 -198 0
196 197 198 0
-199 -200 0
-199 -201 0
-200 -201 0
199 200 201 0
-202 -203 0
-202 -204 0
-203 -204 0
202 203 204 0
-205 -206 0
-205 -207 0
-206 -207 0
205 206 207 0
-208 -209 0
-208 -210 0
-209 -210 0
208 209 210 0
-211 -212 0
-211 -213 0
-212 -213 0
211 212 213 0
-214 -215 0
-214 -216 0
-215 -216 0
214 215 216 0
-217 -218 0
-217 -219 0
-218 -219 0
217 218 219 0
-220 -221 0
-220 -222 0
-221 -222 0
220 221 222 0
-223 -224 0
-223 -225 0
-224 -225 0
223 224 225 0
-31 -1 0
-32 -2 0
-33 -3 0
-118 -1 0
-119 -2 0
-120 -3 0
-154 -1 0
-155 -2 0
-156 -3 0
-172 -1 0
-173 -2 0
-174 -3 0
-181 -1 0
-182 -2 0
-183 -3 0
-16 -4 0
-17 -5 0
-18 -6 0
-58 -4 0
-59 -5 0
-60 -6 0
-67 -4 0
-68 -5 0
-69 -6 0
-115 -4 0
-116 -5 0
-117 -6 0
-124 -4 0
-125 -5 0
-126 -6 0
-223 -4 0
-224 -5 0
-225 -6 0
-43 -7 0
-44 -8 0
-45 -9 0
-46 -7 0
-47 -8 0
-48 -9 0
-127 -7 0
-128 -8 0
-129 -9 0
-142 -7 0
-143 -8 0
-144 -9 0
-178 -7 0
-179 -8 0
-180 -9 0
-178 -10 0
-179 -11 0
-180 -12 0
-94 -13 0
-95 -14 0
-96 -15 0
-142 -13 0
-143 -14 0
-144 -15 0
-172 -13 0
-173 -14 0
-174 -15 0
-82 -16 0
-83 -17 0
-84 -18 0
-163 -16 0
-164 -17 0
-165 -18 0
-169 -16 0
-170 -17 0
-171 -18 0
-205 -16 0
-206 -17 0
-207 -18 0
-58 -19 0
-59 -20 0
-60 -21 0
-73 -19 0
-74 -20 0
-75 -21 0
-136 -19 0
-137 -20 0
-138 -21 0
-142 -19 0
-143 -20 0
-144 -21 0
-184 -19 0
-185 -20 0
-186 -21 0
-196 -19 0
-197 -20 0
-198 -21 0
-46 -22 0
-47 -23 0
-48 -24 0
-55 -22 0
-56 -23 0
-57 -24 0
-67 -22 0
-68 -23 0
-69 -24 0
-103 -22 0
-104 -23 0
-105 -24 0
-109 -22 0
-110 -23 0
-111 -24 0
-157 -22 0
-158 -23 0
-159 -24 0
-190 -22 0
-191 -23 0
-192 -24 0
-61 -25 0
-62 -26 0
-63 -27 0
-40 -28 0
-41 -29 0
-42 -30 0
-103 -28 0
-104 -29 0
-105 -30 0
-139 -28 0
-140 -29 0
-141 -30 0
-187 -28 0
-188 -29 0
-189 -30 0
-193 -28 0
-194 -29 0
-195 -30 0
-211 -28 0
-212 -29 0
-213 -30 0
-46 -31 0
-47 -32 0
-48 -33 0
-55 -31 0
-56 -32 0
-57 -33 0
-139 -31 0
-140 -32 0
-141 -33 0
-154 -31 0
-155 -32 0
-156 -33 0
-193 -31 0
-194 -32 0
-195 -33 0
-214 -31 0
-215 -32 0
-216 -33 0
-145 -34 0
-146 -35 0
-147 -36 0
-166 -34 0
-167 -35 0
-168 -36 0
-190 -34 0
-191 -35 0
-192 -36 0
-214 -34 0
-215 -35 0
-216 -36 0
-223 -34 0
-224 -35 0
-225 -36 0
-76 -37 0
-77 -38 0
-78 -39 0
-88 -37 0
-89 -38 0
-90 -39 0
-94 -37 0
-95 -38 0
-96 -39 0
-124 -37 0
-125 -38 0
-126 -39 0
-163 -37 0
-164 -38 0
-165 -39 0
-184 -37 0
-185 -38 0
-186 -39 0
-64 -40 0
-65 -41 0
-66 -42 0
-139 -40 0
-140 -41 0
-141 -42 0
-76 -43 0
-77 -44 0
-78 -45 0
-211 -43 0
-212 -44 0
-213 -45 0
-223 -43 0
-224 -44 0
-225 -45 0
-142 -46 0
-143 -47 0
-144 -48 0
-169 -46 0
-170 -47 0
-171 -48 0
-214 -46 0
-215 -47 0
-216 -48 0
-52 -49 0
-53 -50 0
-54 -51 0
-133 -49 0
-134 -50 0
-135 -51 0
-166 -49 0
-167 -50 0
-168 -51 0
-193 -49 0
-194 -50 0
-195 -51 0
-196 -49 0
-197 -50 0
-198 -51 0
-214 -49 0
-215 -50 0
-216 -51 0
-70 -52 0
-71 -53 0
-72 -54 0
-103 -52 0
-104 -53 0
-105 -54 0
-127 -52 0
-128 -53 0
-129 -54 0
-73 -55 0
-74 -56 0
-75 -57 0
-103 -55 0
-104 -56 0
-105 -57 0
-187 -55 0
-188 -56 0
-189 -57 0
-205 -55 0
-206 -56 0
-207 -57 0
-217 -55 0
-218 -56 0
-219 -57 0
-73 -58 0
-74 -59 0
-75 -60 0
-151 -58 0
-152 -59 0
-153 -60 0
-100 -61 0
-101 -62 0
-102 -63 0
-145 -61 0
-146 -62 0
-147 -63 0
-82 -64 0
-83 -65 0
-84 -66 0
-190 -64 0
-191 -65 0
-192 -66 0
-214 -64 0
-215 -65 0
-216 -66 0
-106 -67 0
-107 -68 0
-108 -69 0
-121 -67 0
-122 -68 0
-123 -69 0
-199 -67 0
-200 -68 0
-201 -69 0
-118 -70 0
-119 -71 0
-120 -72 0
-130 -70 0
-131 -71 0
-132 -72 0
-145 -70 0
-146 -71 0
-147 -72 0
-169 -70 0
-170 -71 0
-171 -72 0
-202 -70 0
-203 -71 0
-204 -72 0
-94 -73 0
-95 -74 0
-96 -75 0
-97 -73 0
-98 -74 0
-99 -75 0
-154 -73 0
-155 -74 0
-156 -75 0
-103 -76 0
-104 -77 0
-105 -78 0
-118 -76 0
-119 -77 0
-120 -78 0
-127 -76 0
-128 -77 0
-129 -78 0
-190 -76 0
-191 -77 0
-192 -78 0
-85 -79 0
-86 -80 0
-87 -81 0
-106 -79 0
-107 -80 0
-108 -81 0
-124 -79 0
-125 -80 0
-126 -81 0
-175 -79 0
-176 -80 0
-177 -81 0
-181 -79 0
-182 -80 0
-183 -81 0
-211 -79 0
-212 -80 0
-213 -81 0
-106 -82 0
-107 -83 0
-108 -84 0
-175 -82 0
-176 -83 0
-177 -84 0
-220 -82 0
-221 -83 0
-222 -84 0
-121 -85 0
-122 -86 0
-123 -87 0
-154 -85 0
-155 -86 0
-156 -87 0
-172 -88 0
-173 -89 0
-174 -90 0
-190 -88 0
-191 -89 0
-192 -90 0
-205 -88 0
-206 -89 0
-207 -90 0
-163 -91 0
-164 -92 0
-165 -93 0
-127 -94 0
-128 -95 0
-129 -96 0
-217 -94 0
-218 -95 0
-219 -96 0
-142 -97 0
-143 -98 0
-144 -99 0
-223 -97 0
-224 -98 0
-225 -99 0
-109 -100 0
-110 -101 0
-111 -102 0
-154 -100 0
-155 -101 0
-156 -102 0
-172 -100 0
-173 -101 0
-174 -102 0
-178 -100 0
-179 -101 0
-180 -102 0
-214 -100 0
-215 -101 0
-216 -102 0
-139 -103 0
-140 -104 0
-141 -105 0
-169 -103 0
-170 -104 0
-171 -105 0
-133 -106 0
-134 -107 0
-135 -108 0
-160 -106 0
-161 -107 0
-162 -108 0
-175 -106 0
-176 -107 0
-177 -108 0
-172 -109 0
-173 -110 0
-174 -111 0
-121 -112 0
-122 -113 0
-123 -114 0
-133 -112 0
-134 -113 0
-135 -114 0
-193 -112 0
-194 -113 0
-195 -114 0
-202 -112 0
-203 -113 0
-204 -114 0
-127 -115 0
-128 -116 0
-129 -117 0
-157 -118 0
-158 -119 0
-159 -120 0
-202 -118 0
-203 -119 0
-204 -120 0
-139 -121 0
-140 -122 0
-141 -123 0
-169 -121 0
-170 -122 0
-171 -123 0
-136 -124 0
-137 -125 0
-138 -126 0
-160 -124 0
-161 -125 0
-162 -126 0
-187 -124 0
-188 -125 0
-189 -126 0
-145 -127 0
-146 -128 0
-147 -129 0
-205 -127 0
-206 -128 0
-207 -129 0
-205 -130 0
-206 -131 0
-207 -132 0
-211 -130 0
-212 -131 0
-213 -132 0
-223 -133 0
-224 -134 0
-225 -135 0
-139 -136 0
-140 -137 0
-141 -138 0
-214 -136 0
-215 -137 0
-216 -138 0
-217 -139 0
-218 -140 0
-219 -141 0
-154 -142 0
-155 -143 0
-156 -144 0
-196 -142 0
-197 -143 0
-198 -144 0
-178 -145 0
-179 -146 0
-180 -147 0
-214 -145 0
-215 -146 0
-216 -147 0
-190 -148 0
-191 -149 0
-192 -150 0
-202 -151 0
-203 -152 0
-204 -153 0
-181 -154 0
-182 -155 0
-183 -156 0
-223 -157 0
-224 -158 0
-225 -159 0
-208 -160 0
-209 -161 0
-210 -162 0
-211 -160 0
-212 -161 0
-213 -162 0
-187 -163 0
-188 -164 0
-189 -165 0
-178 -166 0
-179 -167 0
-180 -168 0
-208 -166 0
-209 -167 0
-210 -168 0
-199 -175 0
-200 -176 0
-201 -177 0
-217 -178 0
-218 -179 0
-219 -180 0
-220 -178 0
-221 -179 0
-222 -180 0
-211 -181 0
-212 -182 0
-213 -183 0
-205 -184 0
-206 -185 0
-207 -186 0
-199 -187 0
-200 -188 0
-201 -189 0
-211 -187 0
-212 -188 0
-213 -189 0
-199 -190 0
-200 -191 0
-201 -192 0
-202 -190 0
-203 -191 0
-204 -192 0
-205 -202 0
-206 -203 0
-207 -204 0
-217 -208 0
-218 -209 0
-219 -210 0
-223 -211 0
-224 -212 0
-225 -213 0
